p edge 75
e 0 1
e 0 23
e 0 37
e 0 47
e 0 52
e 1 23
e 1 37
e 1 70
e 2 14
e 2 15
e 2 38
e 2 39
e 2 43
e 2 62
e 2 73
e 3 13
e 3 58
e 4 15
e 4 17
e 4 20
e 4 44
e 4 51
e 4 61
e 4 63
e 5 31
e 5 41
e 5 46
e 5 53
e 5 59
e 6 18
e 6 40
e 6 48
e 6 55
e 7 31
e 7 50
e 7 53
e 7 71
e 8 29
e 8 33
e 8 34
e 8 36
e 9 29
e 9 34
e 9 49
e 9 57
e 9 74
e 10 14
e 10 16
e 10 26
e 10 68
e 10 73
e 11 35
e 11 42
e 11 45
e 11 54
e 11 60
e 11 64
e 11 67
e 12 38
e 12 43
e 12 46
e 12 58
e 12 59
e 13 38
e 13 58
e 13 62
e 14 15
e 14 32
e 14 68
e 14 73
e 15 32
e 15 43
e 15 44
e 15 63
e 16 26
e 16 68
e 16 74
e 17 30
e 17 51
e 17 61
e 17 67
e 18 35
e 18 40
e 18 42
e 18 55
e 19 27
e 19 35
e 19 40
e 19 45
e 19 65
e 19 66
e 20 21
e 20 28
e 20 44
e 20 56
e 20 61
e 21 24
e 21 25
e 21 28
e 21 56
e 21 64
e 22 23
e 22 50
e 22 70
e 23 50
e 23 52
e 23 70
e 23 71
e 24 25
e 24 45
e 24 64
e 24 66
e 24 72
e 25 33
e 25 34
e 25 56
e 25 57
e 25 72
e 26 39
e 26 69
e 26 73
e 27 40
e 27 48
e 27 65
e 28 54
e 28 61
e 28 64
e 29 34
e 30 47
e 30 51
e 30 52
e 30 53
e 30 67
e 30 71
e 31 53
e 32 44
e 32 49
e 32 68
e 33 34
e 33 36
e 33 72
e 34 57
e 35 40
e 35 45
e 36 65
e 36 66
e 36 72
e 37 47
e 37 60
e 38 43
e 38 58
e 38 62
e 39 62
e 39 69
e 39 73
e 40 48
e 41 43
e 41 51
e 41 53
e 41 59
e 41 63
e 42 55
e 42 60
e 43 59
e 43 63
e 44 49
e 44 56
e 45 64
e 45 66
e 46 59
e 47 52
e 47 60
e 47 67
e 49 56
e 49 57
e 49 68
e 49 74
e 50 71
e 51 53
e 51 63
e 52 71
e 53 71
e 54 61
e 54 64
e 54 67
e 56 57
e 60 67
e 61 67
e 62 69
e 65 66
e 66 72
e 68 74
c k 4
